424 5
10 10 10 10 10 

0 0 0 0 0 0 5 2 14 26 38 50 
0 0 0 0 0 0 4 3 6 7 107 
4 0 0 1 0 0 1 4 
8 0 0 8 0 0 1 5 
5 0 0 2 0 0 1 8 
9 0 0 8 0 0 1 8 
1 0 0 4 0 0 1 8 
8 0 0 5 0 0 2 12 9 
4 0 0 8 0 0 1 10 
4 0 0 5 0 0 1 11 
10 0 0 4 0 0 1 13 
5 0 0 5 0 0 1 13 
0 0 0 0 0 0 1 62 
0 0 0 0 0 0 1 15 
8 0 0 1 0 0 3 20 18 16 
6 0 0 5 0 0 2 17 352 
1 0 0 9 0 0 1 19 
4 0 0 2 0 0 1 19 
1 0 0 4 0 0 1 21 
3 0 0 7 0 0 1 21 
2 0 0 3 0 0 1 22 
3 0 0 8 0 0 2 24 23 
2 0 0 6 0 0 1 25 
2 0 0 5 0 0 1 25 
0 0 0 0 0 0 1 62 
0 0 0 0 0 0 1 27 
8 0 0 0 0 1 1 28 
6 0 0 0 0 8 2 33 29 
8 0 0 0 0 6 2 32 30 
9 0 0 0 0 7 1 31 
9 0 0 0 0 3 2 36 34 
6 0 0 0 0 7 2 36 34 
1 0 0 0 0 4 1 34 
6 0 0 0 0 5 2 35 421 
10 0 0 0 0 5 1 37 
4 0 0 0 0 4 1 37 
0 0 0 0 0 0 1 62 
0 0 0 0 0 0 2 39 40 
5 0 0 0 0 1 3 44 43 41 
4 0 0 0 0 5 2 43 42 
1 0 0 0 0 5 1 42 
3 0 0 0 0 6 2 45 345 
2 0 0 0 0 8 1 45 
3 0 0 0 0 6 1 45 
9 0 0 0 0 7 1 46 
2 0 0 0 0 5 1 47 
6 0 0 0 0 3 1 48 
6 0 0 0 0 4 1 49 
0 0 0 0 0 0 1 62 
0 0 0 0 0 0 1 51 
1 0 0 0 1 0 2 53 52 
3 0 0 0 5 0 2 55 54 
2 0 0 0 9 0 2 55 54 
6 0 0 0 7 0 1 56 
5 0 0 0 4 0 2 56 88 
1 0 0 0 3 0 1 57 
8 0 0 0 5 0 1 58 
3 0 0 0 6 0 2 60 59 
1 0 0 0 4 0 1 61 
2 0 0 0 6 0 1 61 
0 0 0 0 0 0 1 62 
0 0 0 0 0 0 5 63 75 87 99 111 
0 0 0 0 0 0 1 64 
3 0 1 0 0 0 2 70 65 
8 0 9 0 0 0 1 66 
4 0 6 0 0 0 2 68 67 
4 0 4 0 0 0 3 73 69 307 
9 0 4 0 0 0 2 73 72 
7 0 8 0 0 0 1 71 
4 0 6 0 0 0 1 71 
9 0 3 0 0 0 1 72 
6 0 5 0 0 0 1 74 
2 0 4 0 0 0 1 74 
0 0 0 0 0 0 1 123 
0 0 0 0 0 0 4 76 77 84 85 
6 0 0 1 0 0 2 78 281 
3 0 0 10 0 0 1 78 
10 0 0 7 0 0 1 79 
6 0 0 2 0 0 1 80 
4 0 0 3 0 0 1 81 
1 0 0 7 0 0 1 82 
7 0 0 5 0 0 1 83 
1 0 0 4 0 0 1 86 
3 0 0 6 0 0 1 86 
9 0 0 5 0 0 1 86 
0 0 0 0 0 0 1 123 
0 0 0 0 0 0 2 88 89 
8 0 0 1 0 0 2 91 90 
7 0 0 4 0 0 2 91 90 
7 0 0 5 0 0 2 93 92 
9 0 0 7 0 0 1 92 
8 0 0 8 0 0 1 94 
4 0 0 7 0 0 2 94 245 
3 0 0 5 0 0 1 95 
7 0 0 4 0 0 1 96 
8 0 0 1 0 0 1 97 
1 0 0 8 0 0 1 98 
0 0 0 0 0 0 1 123 
0 0 0 0 0 0 2 100 109 
4 3 0 0 0 0 1 101 
2 6 0 0 0 0 1 102 
6 4 0 0 0 0 3 108 107 103 
5 6 0 0 0 0 1 104 
6 3 0 0 0 0 2 105 371 
4 3 0 0 0 0 1 106 
2 10 0 0 0 0 1 110 
8 3 0 0 0 0 1 110 
1 5 0 0 0 0 1 110 
7 7 0 0 0 0 1 110 
0 0 0 0 0 0 1 123 
0 0 0 0 0 0 1 112 
7 0 0 0 0 1 1 113 
9 0 0 0 0 4 3 116 114 369 
5 0 0 0 0 5 1 115 
7 0 0 0 0 5 2 118 117 
3 0 0 0 0 10 2 120 118 
6 0 0 0 0 5 2 120 119 
5 0 0 0 0 4 1 119 
10 0 0 0 0 4 1 121 
2 0 0 0 0 8 1 121 
9 0 0 0 0 4 1 122 
0 0 0 0 0 0 1 123 
0 0 0 0 0 0 5 124 136 168 200 232 
0 0 0 0 0 0 1 125 
10 0 0 0 0 1 1 126 
3 0 0 0 0 6 1 127 
8 0 0 0 0 4 3 129 128 278 
7 0 0 0 0 7 2 131 130 
6 0 0 0 0 4 2 131 130 
10 0 0 0 0 5 2 133 132 
10 0 0 0 0 7 2 133 132 
2 0 0 0 0 7 1 134 
5 0 0 0 0 1 1 134 
1 0 0 0 0 8 1 135 
0 0 0 0 0 0 5 264 286 298 320 342 
0 0 0 0 0 0 2 137 166 
6 0 1 1 0 4 1 138 
10 0 8 9 0 3 1 139 
4 0 8 6 0 6 1 140 
3 0 2 6 0 4 1 141 
4 0 6 9 0 4 2 165 142 
10 0 4 7 0 7 1 143 
5 0 6 1 0 5 1 144 
7 0 5 2 0 10 5 164 158 150 149 145 
6 0 5 3 0 7 1 146 
8 0 9 6 0 4 2 152 147 
6 0 6 5 0 2 1 148 
4 0 4 7 0 6 1 151 
9 0 5 2 0 6 1 152 
10 0 4 4 0 9 1 151 
7 0 4 4 0 4 1 153 
8 0 8 4 0 3 1 153 
1 0 4 4 0 6 1 154 
1 0 4 6 0 7 2 163 155 
7 0 6 6 0 5 1 156 
6 0 5 6 0 4 1 157 
7 0 5 6 0 4 1 159 
6 0 3 4 0 4 1 159 
1 0 4 8 0 5 1 160 
10 0 3 4 0 4 2 161 407 
4 0 4 4 0 5 1 162 
4 0 5 2 0 6 1 167 
2 0 6 5 0 3 1 167 
9 0 7 7 0 3 1 167 
10 0 3 9 0 4 1 167 
7 0 6 3 0 6 1 167 
0 0 0 0 0 0 1 424 
0 0 0 0 0 0 2 169 198 
1 0 1 0 1 1 1 170 
8 0 5 0 5 9 1 171 
5 0 5 0 7 4 1 172 
7 0 10 0 5 3 1 173 
4 0 7 0 5 5 2 197 174 
8 0 5 0 3 3 1 175 
4 0 10 0 7 6 1 176 
3 0 5 0 7 3 4 188 181 179 177 
6 0 7 0 5 5 2 186 178 
6 0 4 0 4 7 3 184 180 306 
6 0 5 0 4 4 2 184 183 
4 0 6 0 3 6 1 182 
6 0 1 0 4 9 1 182 
5 0 1 0 5 5 1 183 
4 0 4 0 4 6 1 185 
5 0 4 0 3 4 1 185 
2 0 4 0 3 7 1 187 
5 0 9 0 4 7 1 187 
9 0 5 0 9 9 2 196 189 
9 0 5 0 7 4 2 196 190 
4 0 4 0 4 2 1 190 
9 0 6 0 4 4 1 191 
2 0 5 0 7 4 1 192 
8 0 4 0 4 5 1 193 
10 0 7 0 3 2 1 194 
9 0 2 0 4 7 1 195 
4 0 2 0 8 5 1 199 
4 0 4 0 7 3 1 199 
4 0 7 0 7 8 1 199 
8 0 6 0 7 3 1 199 
0 0 0 0 0 0 1 424 
0 0 0 0 0 0 6 201 226 227 228 229 230 
5 1 1 0 0 3 1 202 
2 6 6 0 0 2 2 203 305 
8 7 4 0 0 7 2 225 204 
6 10 5 0 0 8 2 224 205 
1 5 7 0 0 3 1 206 
1 2 7 0 0 5 1 207 
6 5 3 0 0 5 1 208 
4 2 8 0 0 7 1 209 
4 5 9 0 0 5 1 210 
8 5 8 0 0 5 2 223 211 
1 5 8 0 0 5 1 212 
3 4 5 0 0 8 1 213 
1 4 2 0 0 6 1 214 
6 4 4 0 0 2 1 215 
7 7 5 0 0 4 1 216 
1 10 2 0 0 3 1 217 
7 6 3 0 0 3 1 218 
4 4 5 0 0 3 1 219 
7 6 6 0 0 5 1 220 
8 1 6 0 0 4 1 221 
9 8 7 0 0 7 1 222 
6 4 6 0 0 6 1 231 
7 7 3 0 0 2 1 231 
2 5 3 0 0 3 1 231 
5 5 5 0 0 10 1 231 
5 3 6 0 0 3 1 231 
3 2 3 0 0 7 1 231 
7 5 6 0 0 9 1 231 
9 8 3 0 0 5 1 231 
1 4 4 0 0 5 1 231 
0 0 0 0 0 0 1 424 
0 0 0 0 0 0 2 233 256 
8 1 1 1 0 0 1 234 
9 6 4 4 0 0 1 235 
7 5 4 6 0 0 1 236 
1 4 6 4 0 0 1 237 
3 6 6 8 0 0 2 246 238 
9 8 8 4 0 0 1 239 
5 4 4 6 0 0 1 240 
4 7 3 7 0 0 4 249 243 241 397 
9 4 8 4 0 0 2 245 242 
6 4 2 3 0 0 3 251 248 244 
9 5 4 2 0 0 2 251 247 
9 9 3 7 0 0 1 247 
8 1 3 9 0 0 1 247 
9 8 5 5 0 0 1 247 
6 4 2 6 0 0 1 250 
7 5 7 6 0 0 1 250 
7 6 5 4 0 0 1 251 
9 5 8 3 0 0 1 252 
10 5 6 6 0 0 1 252 
5 4 3 8 0 0 1 253 
6 5 7 5 0 0 2 262 254 
9 5 5 6 0 0 1 255 
6 4 6 6 0 0 1 257 
7 6 5 6 0 0 1 257 
6 9 10 5 0 0 1 258 
9 4 6 4 0 0 1 259 
2 4 3 2 0 0 1 260 
8 6 5 5 0 0 1 261 
3 3 6 5 0 0 1 263 
5 3 5 3 0 0 1 263 
0 0 0 0 0 0 1 424 
0 0 0 0 0 0 3 265 270 272 
5 1 2 0 0 0 1 266 
4 6 4 0 0 0 2 267 398 
3 5 4 0 0 0 1 268 
7 7 3 0 0 0 1 269 
10 4 5 0 0 0 2 278 271 
2 8 3 0 0 0 3 278 276 274 
1 5 4 0 0 0 1 273 
5 5 9 0 0 0 1 273 
8 8 4 0 0 0 1 274 
6 5 1 0 0 0 1 275 
2 3 6 0 0 0 2 284 277 
8 6 4 0 0 0 2 284 277 
7 1 9 0 0 0 1 279 
4 4 6 0 0 0 1 279 
9 7 4 0 0 0 1 280 
9 6 6 0 0 0 1 281 
9 7 4 0 0 0 1 282 
2 5 10 0 0 0 1 283 
6 3 5 0 0 0 1 285 
1 4 7 0 0 0 1 285 
0 0 0 0 0 0 1 424 
0 0 0 0 0 0 2 287 295 
10 0 0 1 0 0 2 294 288 
6 0 0 6 0 0 1 289 
8 0 0 5 0 0 2 293 290 
6 0 0 6 0 0 1 291 
1 0 0 6 0 0 1 292 
2 0 0 6 0 0 1 296 
5 0 0 2 0 0 2 296 312 
6 0 0 3 0 0 1 296 
2 0 0 8 0 0 1 296 
6 0 0 7 0 0 1 297 
0 0 0 0 0 0 5 364 376 388 400 412 
0 0 0 0 0 0 1 299 
7 1 0 0 1 0 2 304 300 
7 3 0 0 6 0 2 308 301 
1 6 0 0 4 0 2 310 302 
1 6 0 0 8 0 2 303 397 
10 3 0 0 5 0 2 314 305 
3 7 0 0 8 0 3 314 310 307 
8 7 0 0 8 0 1 306 
9 1 0 0 5 0 1 307 
6 6 0 0 6 0 2 311 309 
9 5 0 0 4 0 2 312 310 
7 5 0 0 5 0 1 312 
2 5 0 0 6 0 1 311 
4 6 0 0 4 0 1 313 
10 5 0 0 3 0 1 313 
4 7 0 0 7 0 1 315 
1 4 0 0 3 0 1 315 
5 9 0 0 4 0 1 316 
4 5 0 0 6 0 1 317 
1 3 0 0 3 0 1 318 
5 6 0 0 4 0 1 319 
0 0 0 0 0 0 1 424 
0 0 0 0 0 0 3 321 327 329 
9 0 0 1 1 0 3 340 337 322 
1 0 0 3 4 0 1 323 
5 0 0 3 6 0 1 324 
9 0 0 2 4 0 1 325 
10 0 0 7 5 0 1 326 
5 0 0 10 4 0 1 328 
8 0 0 5 3 0 1 328 
2 0 0 2 9 0 1 330 
6 0 0 5 4 0 3 339 337 332 
10 0 0 9 5 0 2 331 421 
10 0 0 5 6 0 2 339 332 
8 0 0 5 5 0 1 333 
8 0 0 5 8 0 1 334 
8 0 0 4 4 0 1 335 
5 0 0 6 8 0 1 336 
1 0 0 5 5 0 1 338 
4 0 0 3 3 0 1 338 
3 0 0 8 6 0 1 341 
8 0 0 5 6 0 1 341 
6 0 0 7 4 0 1 341 
0 0 0 0 0 0 1 424 
0 0 0 0 0 0 3 343 355 402 
5 0 2 0 1 0 2 347 344 
6 0 4 0 2 0 1 345 
7 0 8 0 7 0 1 346 
7 0 4 0 5 0 2 352 348 
1 0 10 0 6 0 1 348 
2 0 3 0 3 0 1 349 
2 0 6 0 7 0 2 359 350 
4 0 4 0 10 0 1 351 
6 0 8 0 4 0 2 362 353 
3 0 3 0 9 0 2 362 353 
10 0 1 0 2 0 1 354 
10 0 10 0 5 0 1 356 
1 0 5 0 5 0 1 356 
10 0 6 0 5 0 1 357 
6 0 3 0 5 0 1 358 
3 0 2 0 6 0 1 360 
5 0 7 0 3 0 1 360 
7 0 5 0 1 0 1 361 
6 0 6 0 7 0 1 363 
10 0 3 0 7 0 1 363 
0 0 0 0 0 0 1 424 
0 0 0 0 0 0 3 365 366 374 
5 0 0 0 0 1 2 373 367 
5 0 0 0 0 7 2 367 415 
1 0 0 0 0 8 1 368 
3 0 0 0 0 4 1 369 
2 0 0 0 0 3 1 370 
3 0 0 0 0 4 1 371 
6 0 0 0 0 7 1 372 
10 0 0 0 0 8 1 375 
5 0 0 0 0 6 1 375 
9 0 0 0 0 2 1 375 
0 0 0 0 0 0 1 424 
0 0 0 0 0 0 1 377 
5 0 1 0 0 0 2 379 378 
6 0 6 0 0 0 2 386 380 
2 0 5 0 0 0 2 386 380 
9 0 4 0 0 0 2 381 422 
9 0 7 0 0 0 2 385 382 
4 0 7 0 0 0 1 383 
4 0 4 0 0 0 1 384 
2 0 3 0 0 0 1 387 
7 0 5 0 0 0 1 387 
3 0 8 0 0 0 1 387 
0 0 0 0 0 0 1 424 
0 0 0 0 0 0 2 389 390 
3 0 1 0 0 0 2 395 391 
5 0 7 0 0 0 2 395 392 
6 0 7 0 0 0 1 392 
8 0 7 0 0 0 1 393 
3 0 2 0 0 0 1 394 
4 0 3 0 0 0 2 398 396 
10 0 4 0 0 0 1 396 
8 0 9 0 0 0 1 397 
9 0 6 0 0 0 2 399 406 
1 0 4 0 0 0 1 399 
0 0 0 0 0 0 1 424 
0 0 0 0 0 0 1 401 
6 0 0 1 0 0 2 403 402 
9 0 0 10 0 0 2 405 404 
5 0 0 3 0 0 2 406 405 
1 0 0 4 0 0 2 408 406 
1 0 0 3 0 0 2 408 407 
5 0 0 3 0 0 1 407 
8 0 0 9 0 0 2 409 416 
4 0 0 4 0 0 1 409 
9 0 0 6 0 0 1 410 
2 0 0 7 0 0 1 411 
0 0 0 0 0 0 1 424 
0 0 0 0 0 0 2 413 414 
10 0 0 2 0 0 2 419 415 
7 0 0 2 0 0 3 422 419 417 
2 0 0 3 0 0 1 416 
9 0 0 5 0 0 2 422 417 
9 0 0 10 0 0 1 418 
10 0 0 10 0 0 1 420 
10 0 0 2 0 0 1 420 
6 0 0 6 0 0 1 421 
4 0 0 6 0 0 1 423 
5 0 0 4 0 0 1 423 
0 0 0 0 0 0 1 424 
0 0 0 0 0 0 0 
